
630.0
1110.0
630.0
630.0
930.0
630.0
630.0
630.0
630.0
630.0
630.0
630.0
630.0
630.0
630.0
630.0
630.0
630.0
1050.0
630.0
630.0
630.0
630.0
1110.0
630.0
630.0
1020.0
630.0
630.0
960.0
990.0
630.0
1140.0
1230.0
630.0
630.0
630.0
1140.0
630.0
810.0
870.0
630.0
630.0
630.0
630.0
630.0
630.0
630.0
630.0
630.0
630.0
630.0
1020.0
630.0
630.0
630.0
1170.0
1110.0
1140.0
720.0
630.0
900.0
630.0
660.0
630.0
630.0
630.0
630.0
1110.0
1200.0
630.0
630.0
750.0
630.0
630.0
1140.0
630.0
630.0
630.0
660.0